(set-logic ALL)
(set-option :produce-models true)
(declare-sort BoundSet 0)
(declare-sort UnboundSet 0)
(declare-fun IsFallacyOfEquivocation (BoundSet) Bool)
(declare-fun Occurs (BoundSet) Bool)
(declare-fun IsAmbiguous (BoundSet) Bool)
(assert (not (=> (exists ((b BoundSet)) (exists ((a BoundSet)) (and (IsFallacyOfEquivocation b) (Occurs a)))) (exists ((a BoundSet)) (IsAmbiguous a)))))
(check-sat)
(get-model)